
******************************************************************************
This program contains Ipopt, a library for large-scale nonlinear optimization.
 Ipopt is released as open source code under the Eclipse Public License (EPL).
         For more information visit http://projects.coin-or.org/Ipopt
******************************************************************************

This is Ipopt version 3.13.2, running with linear solver mumps.
NOTE: Other linear solvers might be more efficient (see Ipopt documentation).

Number of nonzeros in equality constraint Jacobian...:   181844
Number of nonzeros in inequality constraint Jacobian.:   374513
Number of nonzeros in Lagrangian Hessian.............:        0

Total number of variables............................:     6013
                     variables with only lower bounds:      300
                variables with lower and upper bounds:      902
                     variables with only upper bounds:        0
Total number of equality constraints.................:     4201
Total number of inequality constraints...............:     7200
        inequality constraints with only lower bounds:        0
   inequality constraints with lower and upper bounds:     3600
        inequality constraints with only upper bounds:     3600

iter    objective    inf_pr   inf_du lg(mu)  ||d||  lg(rg) alpha_du alpha_pr  ls
   0  1.0000000e+02 2.00e+01 1.47e+00  -3.0 0.00e+00    -  0.00e+00 0.00e+00   0
   1  5.9673549e+00 8.76e+00 1.66e+01  -3.0 4.61e+00    -  3.60e-01 5.62e-01f  1
   2  1.9462425e+01 7.67e+00 1.42e+01  -3.0 6.63e+00    -  5.21e-02 1.24e-01h  1
   3  2.4892720e+01 7.32e+00 1.46e+01  -3.0 5.99e+00    -  1.55e-01 4.65e-02h  1
   4  3.8404270e+01 6.46e+00 2.62e+01  -3.0 5.18e+00    -  2.05e-01 1.17e-01h  1
   5  6.6588425e+01 4.72e+00 6.18e+01  -3.0 4.67e+00    -  3.25e-01 2.68e-01h  1
   6  8.3914436e+01 3.75e+00 6.76e+01  -3.0 3.16e+00    -  2.77e-01 2.07e-01h  1
   7  9.7678129e+01 2.93e+00 6.69e+01  -3.0 2.67e+00    -  3.57e-03 2.18e-01h  1
   8  1.0708418e+02 2.35e+00 6.26e+01  -3.0 2.70e+00    -  4.76e-01 1.98e-01h  1
   9  1.1649041e+02 1.94e+00 5.36e+01  -3.0 2.35e+00    -  3.68e-01 2.67e-01h  1
iter    objective    inf_pr   inf_du lg(mu)  ||d||  lg(rg) alpha_du alpha_pr  ls
  10  1.3857268e+02 5.96e+00 6.25e+01  -3.0 1.89e+00    -  4.16e-01 9.41e-01h  1
  11  1.2276048e+02 5.39e+00 3.42e+01  -3.0 4.78e+00    -  1.16e-01 2.76e-01F  1
  12  1.2230869e+02 4.64e+00 3.17e+01  -3.0 1.78e+00    -  5.21e-01 1.38e-01h  1
  13  1.1784355e+02 7.02e+00 6.07e+01  -3.0 8.28e+00    -  3.64e-01 1.78e-01f  1
  14  1.1335589e+02 1.28e+01 1.03e+02  -3.0 6.53e+00    -  1.95e-01 3.07e-01h  1
  15  1.1330910e+02 1.25e+01 9.80e+01  -3.0 1.26e+00    -  3.37e-01 2.29e-02h  1
  16  1.1206374e+02 7.63e+00 3.79e+01  -3.0 2.13e+00    -  3.42e-01 4.30e-01h  1
  17  1.1058263e+02 5.05e+00 1.97e+01  -3.0 1.30e+00    -  5.78e-02 3.65e-01h  1
  18  1.0936163e+02 3.74e+00 1.05e+01  -3.0 1.15e+00    -  5.07e-01 3.25e-01h  1
  19  1.0747905e+02 2.13e+00 9.98e+00  -3.0 8.23e-01    -  1.01e-01 5.07e-01h  1
iter    objective    inf_pr   inf_du lg(mu)  ||d||  lg(rg) alpha_du alpha_pr  ls
  20  1.0645077e+02 1.11e+00 8.95e+00  -3.0 9.86e-01    -  3.70e-01 4.56e-01h  1
  21  1.0600965e+02 9.46e-01 4.29e+00  -3.0 8.18e-01    -  3.48e-01 2.85e-01h  1
  22  1.0543993e+02 8.50e-01 4.12e+00  -3.0 1.02e+00    -  3.43e-01 4.38e-01h  1
  23  1.0489027e+02 8.14e-01 1.25e+01  -3.0 1.07e+00    -  1.07e-01 6.57e-01h  1
  24  1.0471059e+02 2.06e+00 1.97e+01  -3.0 2.02e+00    -  5.50e-01 4.11e-01h  1
  25  1.0447565e+02 1.12e+01 1.19e+02  -3.0 7.55e+00    -  1.27e-01 2.42e-01h  1
  26  1.0443234e+02 8.94e+00 8.63e+01  -3.0 1.39e+00    -  2.52e-01 1.97e-01h  1
  27  1.0433671e+02 4.35e+00 2.64e+01  -3.0 2.56e+00    -  3.77e-01 4.88e-01h  1
  28  1.0432303e+02 2.42e+00 1.66e+01  -3.0 1.06e+00    -  3.93e-01 5.55e-01h  1
  29  1.0431747e+02 8.99e-01 1.73e+00  -3.0 7.94e-01    -  5.30e-01 5.99e-01h  1
iter    objective    inf_pr   inf_du lg(mu)  ||d||  lg(rg) alpha_du alpha_pr  ls
  30  1.0427909e+02 7.34e-01 1.34e+00  -3.0 1.03e+00    -  3.17e-01 6.41e-01h  1
  31  1.0433200e+02 1.71e-01 1.10e+01  -3.0 2.77e-01    -  9.99e-01 1.00e+00h  1
  32  1.0433145e+02 1.59e-01 7.31e+00  -3.0 2.85e-01    -  1.00e+00 1.00e+00h  1
  33  1.0428956e+02 2.63e+00 1.72e+01  -3.0 1.01e+00    -  1.00e+00 1.00e+00h  1
  34  1.0429121e+02 5.97e-01 6.96e+00  -3.0 1.68e-01    -  4.69e-01 7.82e-01h  1
  35  1.0430104e+02 9.77e-02 8.89e-01  -3.0 1.80e-01    -  1.00e+00 1.00e+00h  1
  36  1.0429924e+02 9.14e-02 1.85e+00  -3.0 1.99e-01    -  1.00e+00 1.00e+00h  1
  37  1.0429901e+02 6.84e-02 6.28e-01  -3.0 1.54e-01    -  1.00e+00 1.00e+00h  1
  38  1.0429856e+02 1.36e-01 6.71e-01  -3.0 2.84e-01    -  1.00e+00 1.00e+00h  1
  39  1.0429596e+02 7.67e-02 4.17e-01  -3.0 2.15e-01    -  1.00e+00 1.00e+00h  1
iter    objective    inf_pr   inf_du lg(mu)  ||d||  lg(rg) alpha_du alpha_pr  ls
  40  1.0429914e+02 4.28e-03 8.77e-01  -3.0 4.59e-02    -  1.00e+00 1.00e+00h  1
  41  1.0429896e+02 1.35e-03 1.43e-01  -3.0 2.96e-02    -  1.00e+00 1.00e+00h  1
  42  1.0429947e+02 7.81e-06 7.80e-03  -3.0 2.34e-03    -  1.00e+00 1.00e+00h  1
  43  1.0269723e+02 3.36e-02 1.03e-01  -4.5 3.69e-01    -  8.69e-01 5.85e-01f  1
  44  1.0235403e+02 3.52e-02 1.87e-01  -4.5 4.99e-01    -  6.60e-01 2.60e-01h  1
  45  1.0168188e+02 3.13e-02 2.34e-01  -4.5 9.11e-01    -  5.90e-01 5.19e-01h  1
  46  1.0150777e+02 3.28e-02 1.54e-01  -4.5 8.05e-01    -  5.06e-01 2.86e-01h  1
  47  1.0140774e+02 2.64e-02 3.20e-01  -4.5 6.06e-01    -  4.57e-01 3.34e-01h  1
  48  1.0134114e+02 2.18e-02 1.15e-01  -4.5 4.81e-01    -  3.92e-01 4.17e-01h  1
  49  1.0129460e+02 2.10e-02 1.82e-01  -4.5 4.10e-01    -  4.87e-01 5.59e-01h  1
iter    objective    inf_pr   inf_du lg(mu)  ||d||  lg(rg) alpha_du alpha_pr  ls
  50  1.0127062e+02 2.02e-02 1.69e-01  -4.5 1.93e-01    -  6.74e-01 9.03e-01h  1
  51  1.0127019e+02 9.50e-03 1.87e-01  -4.5 1.14e-01    -  6.04e-01 5.36e-01h  1
  52  1.0127061e+02 7.11e-04 5.25e-02  -4.5 7.17e-02    -  7.28e-01 1.00e+00h  1
  53  1.0126776e+02 1.32e-03 5.30e-02  -4.5 1.73e-01    -  1.00e+00 6.66e-01h  1
  54  1.0126045e+02 5.95e-03 1.63e-01  -4.5 4.81e-01    -  1.00e+00 6.04e-01f  1
  55  1.0125760e+02 1.12e-02 1.80e-01  -4.5 1.44e-01    -  7.81e-01 1.00e+00h  1
  56  1.0125302e+02 9.20e-03 7.45e-02  -4.5 1.23e-01    -  1.00e+00 1.00e+00h  1
  57  1.0126192e+02 3.77e-04 8.46e-02  -4.5 2.81e-02    -  1.00e+00 1.00e+00h  1
  58  1.0126205e+02 5.13e-05 8.41e-03  -4.5 1.29e-02    -  1.00e+00 1.00e+00h  1
  59  1.0126199e+02 3.28e-05 7.18e-03  -4.5 1.07e-02    -  1.00e+00 1.00e+00h  1
iter    objective    inf_pr   inf_du lg(mu)  ||d||  lg(rg) alpha_du alpha_pr  ls
  60  1.0126129e+02 1.86e-03 3.47e-02  -4.5 6.44e-02    -  1.00e+00 1.00e+00h  1
  61  1.0126115e+02 4.06e-04 2.07e-02  -4.5 2.77e-02    -  1.00e+00 1.00e+00h  1
  62  1.0126121e+02 2.44e-04 6.55e-02  -4.5 2.18e-02    -  1.00e+00 1.00e+00h  1
  63  1.0126126e+02 1.02e-04 2.19e-02  -4.5 1.67e-02    -  1.00e+00 1.00e+00h  1
  64  1.0126134e+02 9.80e-06 5.41e-03  -4.5 6.24e-03    -  1.00e+00 1.00e+00h  1
  65  1.0126131e+02 2.47e-05 4.17e-03  -4.5 1.19e-02    -  1.00e+00 1.00e+00h  1
  66  1.0126133e+02 1.74e-06 6.53e-02  -4.5 1.05e-01    -  1.00e+00 1.00e+00H  1
  67  1.0126070e+02 3.78e-04 2.88e-02  -4.5 2.33e-02    -  1.00e+00 1.00e+00h  1
  68  1.0126081e+02 2.18e-04 4.43e-03  -4.5 2.88e-02    -  1.00e+00 5.00e-01h  2
  69  1.0126099e+02 2.55e-04 2.00e-02  -4.5 2.03e-02    -  1.00e+00 1.00e+00h  1
iter    objective    inf_pr   inf_du lg(mu)  ||d||  lg(rg) alpha_du alpha_pr  ls
  70  1.0126096e+02 3.74e-05 4.47e-03  -4.5 1.12e-02    -  1.00e+00 1.00e+00h  1
  71  1.0126101e+02 8.60e-07 3.28e-03  -4.5 3.11e-03    -  1.00e+00 1.00e+00h  1
  72  1.0126099e+02 1.59e-05 2.75e-03  -4.5 8.12e-03    -  1.00e+00 1.00e+00h  1
  73  1.0126094e+02 1.54e-06 1.07e-02  -4.5 4.48e-02    -  1.00e+00 1.00e+00H  1
  74  1.0126084e+02 3.96e-05 3.01e-02  -4.5 2.32e-02    -  1.00e+00 1.00e+00h  1
  75  1.0126099e+02 1.52e-07 3.83e-02  -4.5 2.76e-02    -  1.00e+00 1.00e+00H  1
  76  1.0126085e+02 2.12e-04 6.55e-03  -4.5 1.38e-02    -  1.00e+00 1.00e+00h  1
  77  1.0126087e+02 3.99e-05 3.01e-03  -4.5 1.28e-02    -  1.00e+00 1.00e+00h  1
  78  1.0126089e+02 8.74e-06 2.33e-03  -4.5 5.45e-03    -  1.00e+00 1.00e+00h  1
  79  1.0126089e+02 6.77e-07 7.50e-04  -4.5 3.63e-03    -  1.00e+00 1.00e+00h  1
iter    objective    inf_pr   inf_du lg(mu)  ||d||  lg(rg) alpha_du alpha_pr  ls
  80  1.0126090e+02 1.74e-07 6.67e-04  -4.5 7.96e-04    -  1.00e+00 1.00e+00h  1
  81  1.0126090e+02 2.24e-06 1.02e-03  -4.5 1.76e-03    -  1.00e+00 1.00e+00h  1
  82  1.0126091e+02 8.43e-08 3.99e-03  -4.5 1.44e-02    -  1.00e+00 1.00e+00H  1
  83  1.0126089e+02 4.36e-05 1.92e-02  -4.5 7.92e-03    -  1.00e+00 1.00e+00h  1
  84  1.0126089e+02 1.25e-04 1.44e-02  -4.5 1.00e-02    -  1.00e+00 1.00e+00h  1
  85  1.0126089e+02 8.79e-05 1.65e-03  -4.5 7.82e-03    -  1.00e+00 1.00e+00h  1
  86  1.0126090e+02 4.04e-06 2.00e-03  -4.5 5.79e-03    -  1.00e+00 1.00e+00h  1
  87  1.0126090e+02 1.00e-05 1.92e-03  -4.5 3.29e-03    -  1.00e+00 1.00e+00h  1
  88  1.0126090e+02 5.03e-07 3.79e-04  -4.5 2.31e-03    -  1.00e+00 1.00e+00h  1
  89  1.0126090e+02 1.04e-06 5.50e-04  -4.5 1.44e-03    -  1.00e+00 1.00e+00h  1
iter    objective    inf_pr   inf_du lg(mu)  ||d||  lg(rg) alpha_du alpha_pr  ls
  90  1.0126090e+02 4.01e-07 1.29e-04  -4.5 9.92e-04    -  1.00e+00 1.00e+00h  1
  91  1.0120115e+02 1.01e-04 1.96e-02  -5.0 3.57e-02    -  1.00e+00 9.01e-01f  1
  92  1.0119222e+02 8.47e-04 7.00e-02  -5.0 1.14e-01    -  1.00e+00 4.96e-01h  1
  93  1.0118767e+02 6.82e-04 9.42e-02  -5.0 9.19e-02    -  1.00e+00 5.20e-01h  1
  94  1.0118425e+02 1.21e-03 1.25e-01  -5.0 5.83e-02    -  1.00e+00 1.00e+00h  1
  95  1.0118449e+02 1.02e-03 4.00e-02  -5.0 4.09e-02    -  1.00e+00 1.00e+00h  1
  96  1.0118538e+02 2.63e-04 2.98e-02  -5.0 2.27e-02    -  1.00e+00 1.00e+00h  1
  97  1.0118541e+02 3.57e-05 6.77e-03  -5.0 1.18e-02    -  1.00e+00 1.00e+00h  1
  98  1.0118526e+02 1.27e-07 9.64e-03  -5.0 1.86e-02    -  1.00e+00 1.00e+00H  1
  99  1.0118508e+02 8.98e-08 4.23e-02  -5.0 7.44e-02    -  1.00e+00 1.00e+00H  1
iter    objective    inf_pr   inf_du lg(mu)  ||d||  lg(rg) alpha_du alpha_pr  ls
 100  1.0118454e+02 3.82e-04 4.74e-02  -5.0 2.67e-02    -  1.00e+00 1.00e+00h  1
 101  1.0118464e+02 1.61e-04 2.76e-02  -5.0 2.68e-02    -  1.00e+00 1.00e+00h  1
 102  1.0118478e+02 5.03e-05 4.20e-02  -5.0 1.27e-02    -  1.00e+00 1.00e+00h  1
 103  1.0118478e+02 2.46e-05 1.06e-02  -5.0 9.82e-03    -  1.00e+00 1.00e+00h  1
 104  1.0118475e+02 9.77e-06 4.69e-03  -5.0 1.32e-02    -  1.00e+00 1.00e+00h  1
 105  1.0118464e+02 2.38e-05 5.01e-03  -5.0 2.64e-02    -  1.00e+00 1.00e+00h  1
 106  1.0118462e+02 6.46e-06 1.39e-02  -5.0 1.12e-01    -  1.00e+00 1.00e+00H  1
 107  1.0118423e+02 5.15e-04 2.27e-02  -5.0 2.77e-02    -  1.00e+00 1.00e+00h  1
 108  1.0118425e+02 8.97e-04 4.94e-02  -5.0 3.92e-02    -  1.00e+00 1.00e+00h  1
 109  1.0118431e+02 3.77e-04 8.68e-03  -5.0 2.63e-02    -  1.00e+00 1.00e+00h  1
iter    objective    inf_pr   inf_du lg(mu)  ||d||  lg(rg) alpha_du alpha_pr  ls
 110  1.0118446e+02 3.35e-06 3.05e-03  -5.0 5.59e-03    -  1.00e+00 1.00e+00h  1
 111  1.0118446e+02 8.04e-07 1.44e-03  -5.0 2.59e-03    -  1.00e+00 1.00e+00h  1
 112  1.0118446e+02 8.99e-07 1.26e-03  -5.0 9.78e-03    -  1.00e+00 1.00e+00h  1
 113  1.0118447e+02 7.87e-09 5.67e-03  -5.0 6.11e-02    -  1.00e+00 1.00e+00H  1
 114  1.0118437e+02 3.42e-05 3.19e-03  -5.0 1.32e-02    -  1.00e+00 1.00e+00h  1
 115  1.0118440e+02 6.71e-06 7.30e-03  -5.0 9.66e-03    -  1.00e+00 1.00e+00h  1
 116  1.0118441e+02 5.47e-07 9.05e-03  -5.0 6.73e-03    -  1.00e+00 1.00e+00h  1
 117  1.0118441e+02 1.96e-08 9.71e-03  -5.0 7.41e-03    -  1.00e+00 1.00e+00H  1
 118  1.0118441e+02 9.17e-07 1.61e-03  -5.0 7.48e-03    -  1.00e+00 1.00e+00h  1
 119  1.0118440e+02 8.34e-07 9.36e-04  -5.0 4.81e-03    -  1.00e+00 1.00e+00h  1
iter    objective    inf_pr   inf_du lg(mu)  ||d||  lg(rg) alpha_du alpha_pr  ls
 120  1.0118440e+02 4.07e-10 1.76e-03  -5.0 5.60e-03    -  1.00e+00 1.00e+00H  1
 121  1.0118440e+02 1.47e-06 3.06e-03  -5.0 1.04e-02    -  1.00e+00 1.00e+00h  1
 122  1.0118439e+02 3.06e-06 3.22e-03  -5.0 1.54e-02    -  1.00e+00 1.00e+00h  1
 123  1.0118439e+02 4.75e-06 6.70e-03  -5.0 5.88e-03    -  1.00e+00 1.00e+00h  1
 124  1.0118439e+02 1.09e-06 6.72e-03  -5.0 2.33e-03    -  1.00e+00 1.00e+00h  1
 125  1.0118439e+02 3.21e-07 2.27e-03  -5.0 4.90e-03    -  1.00e+00 1.00e+00h  1
 126  1.0118439e+02 3.42e-10 1.02e-03  -5.0 7.88e-03    -  1.00e+00 1.00e+00H  1
 127  1.0118438e+02 2.96e-10 2.48e-03  -5.0 2.52e-02    -  1.00e+00 1.00e+00H  1
 128  1.0118437e+02 6.11e-06 4.79e-03  -5.0 5.23e-03    -  1.00e+00 1.00e+00h  1
 129  1.0118438e+02 2.75e-08 2.91e-03  -5.0 8.22e-03    -  1.00e+00 1.00e+00H  1
iter    objective    inf_pr   inf_du lg(mu)  ||d||  lg(rg) alpha_du alpha_pr  ls
 130  1.0118437e+02 5.85e-07 1.77e-03  -5.0 2.51e-03    -  1.00e+00 1.00e+00h  1
 131  1.0118438e+02 1.81e-07 1.64e-04  -5.0 1.59e-03    -  1.00e+00 1.00e+00h  1
 132  1.0118438e+02 3.34e-08 2.69e-04  -5.0 9.49e-04    -  1.00e+00 1.00e+00h  1
 133  1.0118437e+02 2.35e-09 1.78e-03  -5.0 7.88e-03    -  1.00e+00 1.00e+00H  1
 134  1.0118438e+02 2.43e-10 1.15e-02  -5.0 6.22e-03    -  1.00e+00 1.00e+00H  1
 135  1.0118438e+02 5.05e-08 5.28e-04  -5.0 7.44e-03    -  1.00e+00 1.00e+00H  1
 136  1.0118438e+02 1.21e-07 1.25e-03  -5.0 1.37e-03    -  1.00e+00 1.00e+00h  1
 137  1.0118438e+02 1.23e-07 1.30e-04  -5.0 6.61e-04    -  1.00e+00 1.00e+00h  1
 138  1.0118438e+02 3.72e-09 1.17e-04  -5.0 3.78e-04    -  1.00e+00 1.00e+00h  1
 139  1.0118438e+02 1.87e-09 1.30e-03  -5.0 7.75e-03    -  1.00e+00 1.00e+00H  1
iter    objective    inf_pr   inf_du lg(mu)  ||d||  lg(rg) alpha_du alpha_pr  ls
 140  1.0118438e+02 5.77e-11 2.38e-03  -5.0 5.11e-03    -  1.00e+00 1.00e+00H  1
 141  1.0118438e+02 1.45e-08 9.44e-04  -5.0 5.65e-03    -  1.00e+00 1.00e+00H  1
 142  1.0118438e+02 3.40e-06 2.70e-03  -5.0 2.77e-03    -  1.00e+00 1.00e+00h  1
 143  1.0118438e+02 3.18e-09 7.05e-04  -5.0 2.76e-03    -  1.00e+00 1.00e+00H  1
 144  1.0118438e+02 2.95e-08 1.15e-03  -5.0 3.99e-04    -  1.00e+00 1.00e+00h  1
 145  1.0118438e+02 1.02e-08 1.31e-04  -5.0 2.37e-04    -  1.00e+00 1.00e+00h  1
 146  1.0118438e+02 5.95e-09 5.29e-05  -5.0 2.28e-04    -  1.00e+00 1.00e+00h  1

Number of Iterations....: 146

                                   (scaled)                 (unscaled)
Objective...............:   1.0118437832258547e+02    1.0118437832258547e+02
Dual infeasibility......:   5.2917472817437528e-05    5.2917472817437528e-05
Constraint violation....:   5.9460414243170271e-09    5.9460414243170271e-09
Complementarity.........:   9.0909090909177731e-06    9.0909090909177731e-06
Overall NLP error.......:   5.2917472817437528e-05    5.2917472817437528e-05


Number of objective function evaluations             = 176
Number of objective gradient evaluations             = 147
Number of equality constraint evaluations            = 176
Number of inequality constraint evaluations          = 176
Number of equality constraint Jacobian evaluations   = 147
Number of inequality constraint Jacobian evaluations = 147
Number of Lagrangian Hessian evaluations             = 0
Total CPU secs in IPOPT (w/o function evaluations)   =     36.102
Total CPU secs in NLP function evaluations           =    597.753

EXIT: Optimal Solution Found.
